22197.26 0
0 31 91 63 13 82 64 55 32 53 15 23 9 36 38 92 1 7 33 56 83 6 43 84 10 76 20 61 58 74 95 87 69 29 24 79 98 35 17 59 70 39 50 44 47 81 8 25 78 57 48 46 40 77 52 60 42 34 22 2 19 88 89 16 54 11 18 75 49 5 30 28 96 14 86 21 3 37 72 71 4 99 26 73 67 94 85 45 41 68 93 90 66 27 65 51 62 12 80 97